** written by FreeCAD inp file writer for CalculiX,Abaqus meshes
** highest dimension mesh elements only.

** Nodes
*Node, NSET=Nall
1, 0, 0, 8
2, 0, 0, 0
3, 0, 1.5, 8
4, 0, 1.5, 0
5, 1, 0, 8
6, 1, 0, 0
7, 1, 1.5, 8
8, 1, 1.5, 0
9, 0, 0, 1
10, 0, 0, 2
11, 0, 0, 3
12, 0, 0, 4
13, 0, 0, 5
14, 0, 0, 6
15, 0, 0, 7
16, 0, 0, 0.5
17, 0, 0, 1.5
18, 0, 0, 2.5
19, 0, 0, 3.5
20, 0, 0, 4.5
21, 0, 0, 5.5
22, 0, 0, 6.5
23, 0, 0, 7.5
24, 0, 0.75, 8
25, 0, 0.375, 8
26, 0, 1.125, 8
27, 0, 1.5, 1
28, 0, 1.5, 2
29, 0, 1.5, 3
30, 0, 1.5, 4
31, 0, 1.5, 5
32, 0, 1.5, 6
33, 0, 1.5, 7
34, 0, 1.5, 0.5
35, 0, 1.5, 1.5
36, 0, 1.5, 2.5
37, 0, 1.5, 3.5
38, 0, 1.5, 4.5
39, 0, 1.5, 5.5
40, 0, 1.5, 6.5
41, 0, 1.5, 7.5
42, 0, 0.75, 0
43, 0, 0.375, 0
44, 0, 1.125, 0
45, 1, 0, 1
46, 1, 0, 2
47, 1, 0, 3
48, 1, 0, 4
49, 1, 0, 5
50, 1, 0, 6
51, 1, 0, 7
52, 1, 0, 0.5
53, 1, 0, 1.5
54, 1, 0, 2.5
55, 1, 0, 3.5
56, 1, 0, 4.5
57, 1, 0, 5.5
58, 1, 0, 6.5
59, 1, 0, 7.5
60, 1, 0.75, 8
61, 1, 0.375, 8
62, 1, 1.125, 8
63, 1, 1.5, 1
64, 1, 1.5, 2
65, 1, 1.5, 3
66, 1, 1.5, 4
67, 1, 1.5, 5
68, 1, 1.5, 6
69, 1, 1.5, 7
70, 1, 1.5, 0.5
71, 1, 1.5, 1.5
72, 1, 1.5, 2.5
73, 1, 1.5, 3.5
74, 1, 1.5, 4.5
75, 1, 1.5, 5.5
76, 1, 1.5, 6.5
77, 1, 1.5, 7.5
78, 1, 0.75, 0
79, 1, 0.375, 0
80, 1, 1.125, 0
81, 0.5, 0, 0
82, 0.5, 0, 8
83, 0.5, 1.5, 0
84, 0.5, 1.5, 8
85, 0, 0.75, 5.5
86, 0, 0.7535430839002, 1.521258503401
87, 0, 0.75, 2.5
88, 0, 0.75, 3.5
89, 0, 0.75, 4.5
90, 0, 0.7464569160998, 6.478741496599
91, 0, 0.7083333333333, 7.25
92, 0, 0.7916666666667, 0.75
93, 0, 0.3541666666667, 7.625
94, 0, 0.3541666666667, 7.125
95, 0, 0.7291666666667, 7.625
96, 0, 0.3958333333333, 0.875
97, 0, 0.3958333333333, 0.375
98, 0, 0.7708333333333, 0.375
99, 0, 1.104166666667, 7.125
100, 0, 1.104166666667, 7.625
101, 0, 1.145833333333, 0.375
102, 0, 1.145833333333, 0.875
103, 0, 0.3767715419501, 1.760629251701
104, 0, 0.3767715419501, 1.260629251701
105, 0, 0.7726048752834, 1.135629251701
106, 0, 0.375, 2.75
107, 0, 0.375, 2.25
108, 0, 0.7517715419501, 2.010629251701
109, 0, 0.375, 3.75
110, 0, 0.375, 3.25
111, 0, 0.75, 3
112, 0, 0.375, 4.75
113, 0, 0.375, 4.25
114, 0, 0.75, 4
115, 0, 0.375, 5.75
116, 0, 0.375, 5.25
117, 0, 0.75, 5
118, 0, 0.3732284580499, 6.739370748299
119, 0, 0.3732284580499, 6.239370748299
120, 0, 0.7482284580499, 5.989370748299
121, 0, 0.7273951247166, 6.864370748299
122, 0, 1.12677154195, 1.260629251701
123, 0, 1.12677154195, 1.760629251701
124, 0, 1.125, 2.25
125, 0, 1.125, 2.75
126, 0, 1.125, 3.25
127, 0, 1.125, 3.75
128, 0, 1.125, 4.25
129, 0, 1.125, 4.75
130, 0, 1.125, 5.25
131, 0, 1.125, 5.75
132, 0, 1.12322845805, 6.239370748299
133, 0, 1.12322845805, 6.739370748299
134, 1, 0.7535430839002, 1.521258503401
135, 1, 0.75, 2.5
136, 1, 0.75, 3.5
137, 1, 0.75, 4.5
138, 1, 0.75, 5.5
139, 1, 0.7464569160998, 6.478741496599
140, 1, 0.7083333333333, 7.25
141, 1, 0.7916666666667, 0.75
142, 1, 0.3541666666667, 7.625
143, 1, 0.7291666666667, 7.625
144, 1, 0.3541666666667, 7.125
145, 1, 0.3958333333333, 0.375
146, 1, 0.3958333333333, 0.875
147, 1, 0.7708333333333, 0.375
148, 1, 1.104166666667, 7.625
149, 1, 1.104166666667, 7.125
150, 1, 1.145833333333, 0.875
151, 1, 1.145833333333, 0.375
152, 1, 0.3767715419501, 1.260629251701
153, 1, 0.3767715419501, 1.760629251701
154, 1, 0.7726048752834, 1.135629251701
155, 1, 0.375, 2.25
156, 1, 0.375, 2.75
157, 1, 0.7517715419501, 2.010629251701
158, 1, 0.375, 3.25
159, 1, 0.375, 3.75
160, 1, 0.75, 3
161, 1, 0.375, 4.25
162, 1, 0.375, 4.75
163, 1, 0.75, 4
164, 1, 0.375, 5.25
165, 1, 0.375, 5.75
166, 1, 0.75, 5
167, 1, 0.3732284580499, 6.239370748299
168, 1, 0.3732284580499, 6.739370748299
169, 1, 0.7482284580499, 5.989370748299
170, 1, 0.7273951247166, 6.864370748299
171, 1, 1.12677154195, 1.760629251701
172, 1, 1.12677154195, 1.260629251701
173, 1, 1.125, 2.75
174, 1, 1.125, 2.25
175, 1, 1.125, 3.75
176, 1, 1.125, 3.25
177, 1, 1.125, 4.75
178, 1, 1.125, 4.25
179, 1, 1.125, 5.75
180, 1, 1.125, 5.25
181, 1, 1.12322845805, 6.739370748299
182, 1, 1.12322845805, 6.239370748299
183, 0.5, 0, 7.5
184, 0.5, 0, 0.5
185, 0.5, 0, 1.5
186, 0.5, 0, 3.5
187, 0.5, 0, 4.5
188, 0.5, 0, 5.5
189, 0.5, 0, 6.5
190, 0.5, 0, 2.5
191, 0.25, 0, 7.75
192, 0.75, 0, 7.75
193, 0.25, 0, 7.25
194, 0.75, 0, 0.25
195, 0.25, 0, 0.25
196, 0.25, 0, 0.75
197, 0.75, 0, 7.25
198, 0.75, 0, 0.75
199, 0.25, 0, 1.25
200, 0.25, 0, 1.75
201, 0.5, 0, 1
202, 0.75, 0, 1.25
203, 0.25, 0, 2.25
204, 0.25, 0, 2.75
205, 0.5, 0, 2
206, 0.75, 0, 1.75
207, 0.75, 0, 2.25
208, 0.25, 0, 3.25
209, 0.25, 0, 3.75
210, 0.5, 0, 3
211, 0.75, 0, 3.25
212, 0.75, 0, 2.75
213, 0.25, 0, 4.25
214, 0.25, 0, 4.75
215, 0.5, 0, 4
216, 0.75, 0, 3.75
217, 0.75, 0, 4.25
218, 0.25, 0, 5.25
219, 0.25, 0, 5.75
220, 0.5, 0, 5
221, 0.75, 0, 4.75
222, 0.75, 0, 5.25
223, 0.25, 0, 6.25
224, 0.25, 0, 6.75
225, 0.5, 0, 6
226, 0.75, 0, 5.75
227, 0.75, 0, 6.25
228, 0.5, 0, 7
229, 0.75, 0, 6.75
230, 0.5, 1.5, 7.5
231, 0.5, 1.5, 1.5
232, 0.5, 1.5, 3.5
233, 0.5, 1.5, 4.5
234, 0.5, 1.5, 5.5
235, 0.5, 1.5, 6.5
236, 0.5, 1.5, 2.5
237, 0.5, 1.5, 0.5
238, 0.75, 1.5, 7.75
239, 0.25, 1.5, 7.75
240, 0.25, 1.5, 7.25
241, 0.25, 1.5, 0.25
242, 0.75, 1.5, 0.25
243, 0.25, 1.5, 0.75
244, 0.75, 1.5, 7.25
245, 0.75, 1.5, 0.75
246, 0.25, 1.5, 1.75
247, 0.25, 1.5, 1.25
248, 0.75, 1.5, 1.25
249, 0.5, 1.5, 1
250, 0.25, 1.5, 2.75
251, 0.25, 1.5, 2.25
252, 0.75, 1.5, 1.75
253, 0.5, 1.5, 2
254, 0.75, 1.5, 2.25
255, 0.25, 1.5, 3.75
256, 0.25, 1.5, 3.25
257, 0.75, 1.5, 3.25
258, 0.5, 1.5, 3
259, 0.75, 1.5, 2.75
260, 0.25, 1.5, 4.75
261, 0.25, 1.5, 4.25
262, 0.75, 1.5, 3.75
263, 0.5, 1.5, 4
264, 0.75, 1.5, 4.25
265, 0.25, 1.5, 5.75
266, 0.25, 1.5, 5.25
267, 0.75, 1.5, 4.75
268, 0.5, 1.5, 5
269, 0.75, 1.5, 5.25
270, 0.25, 1.5, 6.75
271, 0.25, 1.5, 6.25
272, 0.75, 1.5, 5.75
273, 0.5, 1.5, 6
274, 0.75, 1.5, 6.25
275, 0.5, 1.5, 7
276, 0.75, 1.5, 6.75
277, 0.5, 0.4821428571429, 0
278, 0.5, 0.9964285714286, 0
279, 0.25, 0.2410714285714, 0
280, 0.75, 0.2410714285714, 0
281, 0.25, 0.6160714285714, 0
282, 0.75, 1.248214285714, 0
283, 0.25, 1.248214285714, 0
284, 0.25, 0.8732142857143, 0
285, 0.75, 0.6160714285714, 0
286, 0.75, 0.8732142857143, 0
287, 0.5, 0.7392857142857, 0
288, 0.5, 0.4821428571429, 8
289, 0.5, 0.9964285714286, 8
290, 0.75, 0.2410714285714, 8
291, 0.25, 0.2410714285714, 8
292, 0.25, 0.6160714285714, 8
293, 0.25, 1.248214285714, 8
294, 0.75, 1.248214285714, 8
295, 0.25, 0.8732142857143, 8
296, 0.75, 0.6160714285714, 8
297, 0.75, 0.8732142857143, 8
298, 0.5, 0.7392857142857, 8
299, 0.75, 1.12322845805, 5.989370748299
300, 0.5, 0.7464569160998, 6.478741496599
301, 0.25, 1.12322845805, 5.989370748299
302, 0.75, 1.125, 5.5
303, 0.5, 0.7482284580499, 5.989370748299
304, 0.5, 0.7517715419501, 2.010629251701
305, 0.5, 0.7535430839002, 1.521258503401
306, 0.75, 0.3767715419501, 2.010629251701
307, 0.25, 0.3767715419501, 2.010629251701
308, 0.75, 0.375, 2.5
309, 0.75, 1.125, 2.5
310, 0.25, 1.12677154195, 2.010629251701
311, 0.75, 1.12677154195, 2.010629251701
312, 0.75, 0.3732284580499, 5.989370748299
313, 0.25, 0.3732284580499, 5.989370748299
314, 0.75, 0.375, 5.5
315, 0.75, 0.375, 4.5
316, 0.25, 0.375, 4.5
317, 0.5, 0.75, 4.5
318, 0.5, 0.375, 4.25
319, 0.5, 0.75, 5
320, 0.75, 1.125, 4.5
321, 0.25, 1.125, 5
322, 0.5, 0.75, 5.5
323, 0.75, 1.125, 5
324, 0.5, 1.125, 4.25
325, 0.75, 1.125, 4
326, 0.5, 0.75, 4
327, 0.5, 0.75, 3.5
328, 0.75, 0.375, 3.5
329, 0.25, 0.375, 3.5
330, 0.25, 0.375, 4
331, 0.5, 1.125, 3.25
332, 0.75, 1.125, 3.5
333, 0.25, 1.125, 3.5
334, 0.25, 1.125, 4.5
335, 0.75, 0.375, 4
336, 0.5, 0.375, 3.25
337, 0.25, 1.125, 4
338, 0.25, 0.375, 5.5
339, 0.5, 0.375, 5.25
340, 0.5, 1.125, 5.25
341, 0.25, 1.125, 5.5
342, 0.5, 0.375, 4.75
343, 0.75, 0.375, 3
344, 0.5, 0.75, 3
345, 0.25, 0.375, 2.5
346, 0.5, 0.75, 2.5
347, 0.5, 1.125, 2.75
348, 0.25, 1.125, 2.5
349, 0.5, 0.3767715419501, 1.760629251701
350, 0.75, 0.3767715419501, 1.510629251701
351, 0.25, 0.3767715419501, 1.510629251701
352, 0.75, 1.12322845805, 6.489370748299
353, 0.25, 1.12322845805, 6.489370748299
354, 0.5, 1.12322845805, 6.239370748299
355, 0.5, 1.12677154195, 1.760629251701
356, 0.25, 0.3732284580499, 6.489370748299
357, 0.5, 0.3732284580499, 6.239370748299
358, 0.75, 0.3732284580499, 6.489370748299
359, 0.25, 1.12677154195, 1.510629251701
360, 0.75, 1.12677154195, 1.510629251701
361, 0.5, 0.7273951247166, 6.864370748299
362, 0.75, 1.104166666667, 6.875
363, 0.5, 0.7726048752834, 1.135629251701
364, 0.25, 0.3958333333333, 1.125
365, 0.75, 0.3541666666667, 6.875
366, 0.25, 1.145833333333, 1.125
367, 0.5, 0.3958333333333, 0.875
368, 0.25, 0.3958333333333, 0.625
369, 0.5, 1.104166666667, 7.125
370, 0.75, 1.104166666667, 7.375
371, 0.5, 0.7083333333333, 7.25
372, 0.25, 1.104166666667, 6.875
373, 0.5, 0.7916666666667, 0.75
374, 0.75, 0.3958333333333, 1.125
375, 0.25, 1.104166666667, 7.375
376, 0.75, 0.3958333333333, 0.625
377, 0.25, 0.3541666666667, 6.875
378, 0.75, 1.145833333333, 1.125
379, 0.25, 0.6369047619048, 0.375
380, 0.5, 0.2410714285714, 0.25
381, 0.25, 0.375, 0.25
382, 0.75, 0.6369047619048, 0.375
383, 0.75, 0.375, 0.25
384, 0.75, 1.145833333333, 0.625
385, 0.5, 1.145833333333, 0.875
386, 0.5, 0.3541666666667, 7.125
387, 0.25, 0.3541666666667, 7.375
388, 0.75, 1.125, 7.75
389, 0.75, 0.852380952381, 7.625
390, 0.5, 1.248214285714, 7.75
391, 0.25, 1.125, 7.75
392, 0.25, 0.852380952381, 7.625
393, 0.75, 0.3541666666667, 7.375
394, 0.25, 1.145833333333, 0.625
395, 0.25, 0.8940476190476, 0.375
396, 0.75, 0.8940476190476, 0.375
397, 0.25, 0.5952380952381, 7.625
398, 0.75, 0.5952380952381, 7.625
399, 0.5, 0.2410714285714, 7.75
400, 0.5, 1.248214285714, 0.25


** Volume elements
*Element, TYPE=C3D10, ELSET=Evolumes
201, 90, 234, 139, 138, 301, 299, 300, 303, 302, 169
202, 86, 134, 135, 190, 305, 157, 304, 307, 306, 308
203, 86, 236, 135, 134, 310, 309, 304, 305, 311, 157
204, 90, 139, 188, 138, 300, 312, 313, 303, 169, 314
205, 89, 137, 187, 48, 317, 315, 316, 318, 161, 217
206, 233, 85, 137, 138, 321, 319, 320, 323, 322, 166
207, 137, 30, 66, 232, 324, 263, 178, 325, 255, 262
208, 88, 136, 89, 186, 327, 326, 114, 329, 328, 330
209, 88, 136, 29, 232, 327, 331, 126, 333, 332, 256
210, 233, 30, 137, 89, 261, 324, 320, 334, 128, 317
211, 233, 137, 85, 89, 320, 319, 321, 334, 317, 117
212, 89, 136, 137, 186, 326, 163, 317, 330, 328, 335
213, 11, 136, 88, 186, 336, 327, 110, 208, 328, 329
214, 136, 88, 89, 232, 327, 114, 326, 332, 333, 337
215, 232, 136, 29, 65, 332, 331, 256, 257, 176, 258
216, 136, 232, 137, 66, 332, 325, 163, 175, 262, 178
217, 88, 89, 12, 186, 114, 113, 109, 329, 330, 209
218, 85, 188, 13, 49, 338, 218, 116, 339, 222, 220
219, 31, 89, 233, 85, 129, 334, 260, 130, 117, 321
220, 30, 89, 88, 232, 128, 114, 127, 255, 337, 333
221, 89, 30, 137, 232, 128, 324, 317, 337, 255, 325
222, 85, 138, 31, 234, 322, 340, 130, 341, 302, 266
223, 187, 12, 89, 48, 213, 113, 316, 217, 215, 318
224, 13, 187, 89, 49, 214, 316, 112, 220, 221, 342
225, 137, 89, 187, 49, 317, 316, 315, 162, 342, 221
226, 49, 85, 188, 138, 339, 338, 222, 164, 322, 314
227, 136, 89, 137, 232, 326, 317, 163, 332, 337, 325
228, 233, 31, 138, 67, 260, 340, 323, 267, 268, 180
229, 137, 67, 233, 138, 177, 267, 320, 166, 180, 323
230, 137, 66, 30, 233, 178, 263, 324, 320, 264, 261
231, 136, 190, 135, 47, 343, 308, 160, 158, 212, 156
232, 89, 186, 137, 48, 330, 335, 317, 318, 216, 161
233, 11, 190, 136, 47, 204, 343, 336, 210, 212, 158
234, 136, 11, 87, 190, 336, 106, 344, 343, 204, 345
235, 87, 135, 136, 190, 346, 160, 344, 345, 308, 343
236, 135, 236, 29, 65, 309, 250, 347, 173, 259, 258
237, 135, 87, 29, 236, 346, 125, 347, 309, 348, 250
238, 137, 186, 136, 48, 335, 328, 163, 161, 216, 159
239, 136, 186, 11, 47, 328, 208, 336, 158, 211, 210
240, 186, 89, 12, 48, 330, 113, 209, 216, 318, 215
241, 233, 138, 31, 85, 323, 340, 260, 321, 322, 130
242, 234, 138, 31, 67, 302, 340, 266, 269, 180, 268
243, 134, 10, 86, 185, 349, 103, 305, 350, 200, 351
244, 134, 86, 10, 190, 305, 103, 349, 306, 307, 203
245, 90, 235, 139, 68, 353, 352, 300, 354, 274, 182
246, 90, 68, 139, 234, 354, 182, 300, 301, 272, 299
247, 85, 234, 90, 138, 341, 301, 120, 322, 302, 303
248, 135, 87, 86, 190, 346, 108, 304, 308, 345, 307
249, 236, 28, 134, 86, 251, 355, 311, 310, 123, 305
250, 50, 90, 189, 139, 357, 356, 227, 167, 300, 358
251, 86, 28, 134, 231, 123, 355, 305, 359, 246, 360
252, 90, 50, 188, 139, 357, 226, 313, 300, 167, 312
253, 90, 188, 85, 138, 313, 338, 120, 303, 314, 322
254, 87, 135, 86, 236, 346, 304, 108, 348, 309, 310
255, 185, 10, 46, 134, 200, 205, 206, 350, 349, 153
256, 134, 10, 46, 190, 349, 205, 153, 306, 203, 207
257, 68, 90, 32, 234, 354, 132, 273, 272, 301, 265
258, 235, 90, 32, 68, 353, 132, 271, 274, 354, 273
259, 134, 28, 64, 231, 355, 253, 171, 360, 246, 252
260, 134, 64, 28, 236, 171, 253, 355, 311, 254, 251
261, 90, 50, 14, 188, 357, 225, 119, 313, 226, 219
262, 90, 14, 50, 189, 119, 225, 357, 356, 223, 227
263, 10, 86, 87, 190, 103, 108, 107, 203, 307, 345
264, 135, 190, 134, 46, 308, 306, 157, 155, 207, 153
265, 139, 234, 68, 138, 299, 272, 182, 169, 302, 179
266, 85, 32, 90, 234, 131, 132, 120, 341, 265, 301
267, 86, 28, 87, 236, 123, 124, 108, 310, 251, 348
268, 64, 135, 236, 134, 174, 309, 254, 171, 157, 311
269, 188, 139, 50, 138, 312, 167, 226, 314, 169, 165
270, 85, 90, 14, 188, 120, 119, 115, 338, 313, 219
271, 29, 88, 87, 136, 126, 111, 125, 331, 327, 344
272, 87, 88, 11, 136, 111, 110, 106, 344, 327, 336
273, 89, 85, 13, 49, 117, 116, 112, 342, 339, 220
274, 135, 29, 136, 65, 347, 331, 160, 173, 258, 176
275, 89, 137, 85, 49, 317, 319, 117, 342, 162, 339
276, 85, 49, 137, 138, 339, 162, 319, 322, 164, 166
277, 136, 87, 29, 135, 344, 125, 331, 160, 346, 347
278, 90, 140, 139, 235, 361, 170, 300, 353, 362, 352
279, 92, 134, 86, 185, 363, 305, 105, 364, 350, 351
280, 139, 90, 189, 140, 300, 356, 358, 170, 361, 365
281, 92, 231, 86, 134, 366, 359, 105, 363, 360, 305
282, 92, 185, 9, 45, 364, 199, 96, 367, 202, 201
283, 9, 184, 92, 45, 196, 368, 96, 201, 198, 367
284, 140, 235, 33, 69, 362, 270, 369, 149, 276, 275
285, 140, 33, 230, 69, 369, 240, 370, 149, 275, 244
286, 91, 140, 90, 235, 371, 361, 121, 372, 362, 353
287, 92, 141, 134, 185, 373, 154, 363, 364, 374, 350
288, 91, 33, 230, 140, 99, 240, 375, 371, 369, 370
289, 33, 140, 91, 235, 369, 371, 99, 270, 362, 372
290, 141, 185, 92, 45, 374, 364, 373, 146, 202, 367
291, 92, 184, 141, 45, 368, 376, 373, 367, 198, 146
292, 91, 189, 90, 140, 377, 356, 121, 371, 365, 361
293, 231, 134, 92, 141, 360, 363, 366, 378, 154, 373
294, 277, 92, 42, 184, 379, 98, 281, 380, 368, 381
295, 141, 277, 78, 184, 382, 285, 147, 376, 380, 383
296, 2, 277, 42, 184, 279, 281, 43, 195, 380, 381
297, 78, 277, 6, 184, 285, 280, 79, 383, 380, 194
298, 27, 237, 63, 141, 243, 245, 249, 385, 384, 150
299, 15, 51, 91, 183, 228, 386, 94, 193, 197, 387
300, 189, 51, 91, 15, 229, 386, 377, 224, 228, 94
301, 63, 231, 27, 141, 248, 247, 249, 150, 378, 385
302, 140, 60, 230, 289, 143, 388, 370, 389, 297, 390
303, 91, 230, 24, 289, 375, 391, 95, 392, 390, 295
304, 3, 24, 230, 289, 26, 391, 239, 293, 295, 390
305, 60, 7, 230, 289, 62, 238, 388, 297, 294, 390
306, 189, 91, 51, 140, 377, 386, 229, 365, 371, 144
307, 183, 51, 91, 140, 197, 386, 387, 393, 144, 371
308, 92, 27, 231, 141, 102, 247, 366, 373, 385, 378
309, 237, 27, 92, 141, 243, 102, 394, 384, 385, 373
310, 134, 185, 141, 45, 350, 374, 154, 152, 202, 146
311, 91, 90, 33, 235, 121, 133, 99, 372, 353, 270
312, 86, 9, 92, 185, 104, 96, 105, 351, 199, 364
313, 139, 235, 140, 69, 352, 362, 170, 181, 276, 149
314, 92, 277, 141, 184, 379, 382, 373, 368, 380, 376
315, 91, 140, 230, 289, 371, 370, 375, 392, 389, 390
316, 141, 92, 278, 277, 373, 395, 396, 382, 379, 287
317, 140, 91, 288, 289, 371, 397, 398, 389, 392, 298
318, 139, 189, 51, 140, 358, 229, 168, 170, 365, 144
319, 231, 92, 86, 27, 366, 105, 359, 247, 102, 122
320, 134, 231, 63, 141, 360, 248, 172, 154, 378, 150
321, 91, 15, 90, 189, 94, 118, 121, 377, 224, 356
322, 183, 91, 288, 140, 387, 397, 399, 393, 371, 398
323, 278, 237, 92, 141, 400, 394, 395, 396, 384, 373
324, 230, 140, 7, 60, 370, 148, 238, 388, 143, 62
325, 2, 42, 92, 184, 43, 98, 97, 195, 381, 368
326, 78, 6, 141, 184, 79, 145, 147, 383, 194, 376
327, 230, 24, 3, 91, 391, 26, 239, 375, 95, 100
328, 278, 78, 141, 277, 286, 147, 396, 287, 285, 382
329, 278, 92, 42, 277, 395, 98, 284, 287, 379, 281
330, 288, 60, 140, 289, 296, 143, 398, 298, 297, 389
331, 24, 288, 91, 289, 292, 397, 95, 295, 298, 392
332, 91, 288, 1, 183, 397, 291, 93, 387, 399, 191
333, 5, 183, 288, 140, 192, 399, 290, 142, 393, 398
334, 92, 278, 4, 237, 395, 283, 101, 394, 400, 241
335, 8, 237, 278, 141, 242, 400, 282, 151, 384, 396
336, 5, 140, 288, 60, 142, 398, 290, 61, 143, 296
337, 1, 91, 24, 288, 93, 95, 25, 291, 397, 292
338, 92, 42, 4, 278, 98, 44, 101, 395, 284, 283
339, 8, 141, 278, 78, 151, 396, 282, 80, 147, 286
340, 9, 86, 10, 185, 104, 103, 17, 199, 351, 200
341, 33, 90, 32, 235, 133, 132, 40, 270, 353, 271
342, 69, 139, 235, 68, 181, 352, 276, 76, 182, 274
343, 134, 46, 185, 45, 153, 206, 350, 152, 53, 202
344, 7, 140, 230, 69, 148, 370, 238, 77, 149, 244
345, 92, 9, 2, 184, 96, 16, 97, 368, 196, 195
346, 141, 184, 6, 45, 376, 194, 145, 146, 198, 52
347, 230, 3, 33, 91, 239, 41, 240, 375, 100, 99
348, 231, 63, 64, 134, 248, 71, 252, 360, 172, 171
349, 27, 86, 231, 28, 122, 359, 247, 35, 123, 246
350, 189, 51, 50, 139, 229, 58, 227, 358, 168, 167
351, 14, 90, 15, 189, 119, 118, 22, 223, 356, 224
352, 10, 87, 11, 190, 107, 106, 18, 203, 345, 204
353, 49, 187, 137, 48, 221, 315, 162, 56, 217, 161
354, 11, 88, 12, 186, 110, 109, 19, 208, 329, 209
355, 85, 14, 13, 188, 115, 21, 116, 338, 219, 218
356, 89, 13, 12, 187, 112, 20, 113, 316, 214, 213
357, 89, 31, 233, 30, 129, 260, 334, 128, 38, 261
358, 233, 67, 137, 66, 267, 177, 320, 264, 74, 178
359, 29, 30, 88, 232, 37, 127, 126, 256, 255, 333
360, 50, 49, 188, 138, 57, 222, 226, 165, 164, 314
361, 232, 66, 136, 65, 262, 175, 332, 257, 73, 176
362, 85, 31, 32, 234, 130, 39, 131, 341, 266, 265
363, 68, 234, 67, 138, 272, 269, 75, 179, 302, 180
364, 135, 47, 190, 46, 156, 212, 308, 155, 54, 207
365, 28, 29, 87, 236, 36, 125, 124, 251, 250, 348
366, 47, 136, 186, 48, 158, 328, 211, 55, 159, 216
367, 65, 135, 236, 64, 173, 309, 259, 72, 174, 254
368, 1, 288, 5, 183, 291, 290, 82, 191, 399, 192
369, 278, 8, 4, 237, 282, 83, 283, 400, 242, 241
370, 237, 8, 63, 141, 242, 70, 245, 384, 151, 150
371, 4, 27, 92, 237, 34, 102, 101, 241, 243, 394
372, 1, 15, 91, 183, 23, 94, 93, 191, 193, 387
373, 5, 51, 183, 140, 59, 197, 192, 142, 144, 393
374, 6, 277, 2, 184, 280, 279, 81, 194, 380, 195
375, 3, 230, 7, 289, 239, 238, 84, 293, 390, 294

** Define element set Eall
*ELSET, ELSET=Eall
Evolumes



***********************************************************
** Element sets for materials and FEM element type (solid, shell, beam, fluid)
*ELSET,ELSET=MechanicalMaterialSolid
Evolumes

***********************************************************
** constraints fixed node sets
** Fixed
*NSET,NSET=Fixed
2,
4,
6,
8,
42,
43,
44,
78,
79,
80,
81,
83,
277,
278,
279,
280,
281,
282,
283,
284,
285,
286,
287,

** Physical constants for SI(mm) unit system with Kelvins
*PHYSICAL CONSTANTS, ABSOLUTE ZERO=0, STEFAN BOLTZMANN=5.670374419e-11

***********************************************************
** Materials
** see information about units at file end
** FreeCAD material name: CalculiX-Steel
** MechanicalMaterial
*MATERIAL, NAME=MechanicalMaterial
*ELASTIC
210000,0.3

***********************************************************
** Sections
*SOLID SECTION, ELSET=MechanicalMaterialSolid, MATERIAL=MechanicalMaterial

***********************************************************
** At least one step is needed to run an CalculiX analysis of FreeCAD
*STEP
*BUCKLE
10,0.01

***********************************************************
** Fixed Constraints
** Fixed
*BOUNDARY
Fixed,1
Fixed,2
Fixed,3


***********************************************************
** constraints force node loads
** Force
*CLOAD
** node loads on shape: Beam:Face6
1,3,-0
3,3,-0
5,3,-0
7,3,-0
24,3,-0
25,3,-0.875
26,3,-0.875
60,3,-0
61,3,-0.875
62,3,-0.875
82,3,-1.125
84,3,-1.175
288,3,-0
289,3,-0
290,3,-2
291,3,-2
292,3,-1.475
293,3,-2.05
294,3,-2.05
295,3,-1.475
296,3,-1.475
297,3,-1.475
298,3,-1.2



***********************************************************
** Outputs --> frd file
*NODE FILE
U
*EL FILE
S, E
** outputs --> dat file
** reaction forces for Constraint fixed
*NODE PRINT, NSET=Fixed, TOTALS=ONLY
RF

*OUTPUT, FREQUENCY=1
***********************************************************
*END STEP

***********************************************************
** CalculiX Input file
**   written by    --> FreeCAD 26.3.0
**   written on    --> Fri Jul 31 11:52:45 2026
**   file name     -->
**   analysis name --> Analysis
**
**
***********************************************************
**  About units:
**  See ccx manual, ccx does not know about any unit.
**  Golden rule: The user must make sure that the numbers they provide have consistent units.
**  The user is the FreeCAD calculix writer module ;-)
**
**  The unit system which is used at Guido Dhondt's company: mm, N, s, K
**  Since Length and Mass are connected by Force, if Length is mm the Mass is in t to get N
**  The following units are used to write to inp file:
**
**  Length: mm (this includes the mesh geometry)
**  Mass: t
**  TimeSpan: s
**  Temperature: K
**
**  This leads to:
**  Force: N
**  Pressure: N/mm^2 == MPa (Young's Modulus has unit Pressure)
**  Density: t/mm^3
**  Gravity: mm/s^2
**  Thermal conductivity: t*mm/K/s^3 == as W/m/K == kW/mm/K
**  Specific Heat: mm^2/s^2/K = J/kg/K == kJ/t/K
**
